language Essence 1.3

letting class be
        function(1 --> 2, 2 --> 1, 3 --> 5, 4 --> 6, 5 --> 8, 6 --> 1, 7 --> 3, 8 --> 4, 9 --> 5, 10 --> 2, 11 --> 1,
                 12 --> 2, 13 --> 3, 14 --> 8, 15 --> 2, 16 --> 7, 17 --> 2, 18 --> 3, 19 --> 7, 20 --> 8, 21 --> 8,
                 22 --> 6, 23 --> 1, 24 --> 5, 25 --> 2, 26 --> 5, 27 --> 1)
letting deck_length be 43
letting deck_width be 51
letting length be
        function(1 --> 12, 2 --> 1, 3 --> 1, 4 --> 1, 5 --> 20, 6 --> 1, 7 --> 1, 8 --> 22, 9 --> 1, 10 --> 1, 11 --> 1,
                 12 --> 26, 13 --> 1, 14 --> 37, 15 --> 22, 16 --> 1, 17 --> 1, 18 --> 22, 19 --> 35, 20 --> 8,
                 21 --> 13, 22 --> 1, 23 --> 1, 24 --> 13, 25 --> 2, 26 --> 39, 27 --> 29)
letting n_classes be 8
letting n_containers be 27
letting separation be function()
letting width be
        function(1 --> 1, 2 --> 1, 3 --> 1, 4 --> 1, 5 --> 2, 6 --> 1, 7 --> 1, 8 --> 2, 9 --> 1, 10 --> 1, 11 --> 1,
                 12 --> 2, 13 --> 1, 14 --> 1, 15 --> 1, 16 --> 3, 17 --> 1, 18 --> 2, 19 --> 9, 20 --> 1, 21 --> 1,
                 22 --> 1, 23 --> 1, 24 --> 1, 25 --> 4, 26 --> 32, 27 --> 2)
